c colouring generated by benchmark framework
p edge 747 53227
v 1 2
v 2 9
v 3 6
v 4 15
v 5 5
v 6 12
v 7 19
v 8 16
v 9 8
v 10 19
v 11 19
v 12 32
v 13 9
v 14 12
v 15 13
v 16 7
v 17 8
v 18 8
v 19 26
v 20 5
v 21 15
v 22 25
v 23 15
v 24 0
v 25 25
v 26 35
v 27 5
v 28 21
v 29 28
v 30 33
v 31 24
v 32 20
v 33 17
v 34 6
v 35 37
v 36 24
v 37 17
v 38 1
v 39 36
v 40 35
v 41 7
v 42 21
v 43 1
v 44 15
v 45 26
v 46 12
v 47 1
v 48 16
v 49 9
v 50 29
v 51 3
v 52 9
v 53 25
v 54 22
v 55 7
v 56 25
v 57 4
v 58 5
v 59 23
v 60 1
v 61 34
v 62 25
v 63 3
v 64 3
v 65 35
v 66 14
v 67 40
v 68 10
v 69 13
v 70 3
v 71 18
v 72 19
v 73 3
v 74 34
v 75 17
v 76 14
v 77 18
v 78 2
v 79 1
v 80 33
v 81 12
v 82 26
v 83 18
v 84 30
v 85 22
v 86 17
v 87 28
v 88 30
v 89 35
v 90 17
v 91 18
v 92 23
v 93 13
v 94 26
v 95 3
v 96 6
v 97 5
v 98 23
v 99 15
v 100 22
v 101 34
v 102 11
v 103 33
v 104 23
v 105 0
v 106 23
v 107 34
v 108 30
v 109 30
v 110 0
v 111 1
v 112 32
v 113 14
v 114 21
v 115 19
v 116 29
v 117 5
v 118 25
v 119 12
v 120 27
v 121 24
v 122 34
v 123 34
v 124 22
v 125 26
v 126 11
v 127 37
v 128 9
v 129 0
v 130 0
v 131 10
v 132 20
v 133 21
v 134 0
v 135 39
v 136 23
v 137 15
v 138 7
v 139 20
v 140 20
v 141 28
v 142 6
v 143 22
v 144 11
v 145 33
v 146 34
v 147 28
v 148 39
v 149 30
v 150 12
v 151 27
v 152 23
v 153 29
v 154 37
v 155 10
v 156 1
v 157 7
v 158 14
v 159 24
v 160 28
v 161 38
v 162 32
v 163 2
v 164 32
v 165 25
v 166 6
v 167 40
v 168 11
v 169 35
v 170 22
v 171 24
v 172 24
v 173 2
v 174 12
v 175 29
v 176 2
v 177 4
v 178 8
v 179 11
v 180 33
v 181 15
v 182 27
v 183 18
v 184 40
v 185 28
v 186 27
v 187 24
v 188 3
v 189 20
v 190 18
v 191 16
v 192 2
v 193 16
v 194 29
v 195 17
v 196 13
v 197 38
v 198 31
v 199 26
v 200 11
v 201 31
v 202 22
v 203 9
v 204 1
v 205 34
v 206 21
v 207 19
v 208 30
v 209 2
v 210 30
v 211 7
v 212 30
v 213 30
v 214 17
v 215 16
v 216 14
v 217 7
v 218 5
v 219 10
v 220 25
v 221 1
v 222 28
v 223 4
v 224 36
v 225 13
v 226 17
v 227 18
v 228 14
v 229 26
v 230 21
v 231 19
v 232 19
v 233 19
v 234 40
v 235 25
v 236 2
v 237 6
v 238 15
v 239 20
v 240 32
v 241 24
v 242 4
v 243 27
v 244 39
v 245 20
v 246 10
v 247 20
v 248 0
v 249 13
v 250 9
v 251 4
v 252 23
v 253 17
v 254 1
v 255 27
v 256 33
v 257 8
v 258 8
v 259 0
v 260 2
v 261 3
v 262 3
v 263 33
v 264 12
v 265 12
v 266 19
v 267 9
v 268 6
v 269 37
v 270 8
v 271 19
v 272 10
v 273 24
v 274 5
v 275 30
v 276 6
v 277 10
v 278 7
v 279 14
v 280 36
v 281 31
v 282 3
v 283 3
v 284 25
v 285 0
v 286 14
v 287 31
v 288 20
v 289 10
v 290 22
v 291 0
v 292 28
v 293 27
v 294 29
v 295 26
v 296 21
v 297 1
v 298 17
v 299 15
v 300 17
v 301 22
v 302 13
v 303 0
v 304 5
v 305 8
v 306 37
v 307 17
v 308 21
v 309 4
v 310 11
v 311 11
v 312 15
v 313 9
v 314 30
v 315 4
v 316 37
v 317 11
v 318 2
v 319 6
v 320 12
v 321 9
v 322 6
v 323 17
v 324 3
v 325 32
v 326 15
v 327 36
v 328 23
v 329 1
v 330 10
v 331 37
v 332 35
v 333 15
v 334 3
v 335 7
v 336 1
v 337 9
v 338 14
v 339 34
v 340 14
v 341 18
v 342 27
v 343 13
v 344 19
v 345 30
v 346 29
v 347 40
v 348 4
v 349 36
v 350 23
v 351 10
v 352 9
v 353 20
v 354 11
v 355 0
v 356 23
v 357 32
v 358 16
v 359 20
v 360 9
v 361 21
v 362 16
v 363 35
v 364 24
v 365 19
v 366 35
v 367 16
v 368 22
v 369 21
v 370 13
v 371 13
v 372 22
v 373 32
v 374 0
v 375 5
v 376 27
v 377 10
v 378 31
v 379 9
v 380 4
v 381 38
v 382 20
v 383 34
v 384 11
v 385 8
v 386 16
v 387 0
v 388 5
v 389 16
v 390 40
v 391 24
v 392 32
v 393 22
v 394 35
v 395 29
v 396 32
v 397 26
v 398 11
v 399 39
v 400 17
v 401 32
v 402 15
v 403 31
v 404 36
v 405 7
v 406 15
v 407 1
v 408 8
v 409 31
v 410 2
v 411 16
v 412 34
v 413 9
v 414 26
v 415 11
v 416 23
v 417 37
v 418 26
v 419 30
v 420 12
v 421 9
v 422 37
v 423 12
v 424 27
v 425 28
v 426 6
v 427 22
v 428 35
v 429 1
v 430 4
v 431 31
v 432 14
v 433 24
v 434 29
v 435 8
v 436 4
v 437 22
v 438 35
v 439 38
v 440 9
v 441 5
v 442 11
v 443 13
v 444 10
v 445 6
v 446 23
v 447 10
v 448 17
v 449 5
v 450 5
v 451 22
v 452 29
v 453 25
v 454 28
v 455 3
v 456 2
v 457 24
v 458 10
v 459 13
v 460 20
v 461 13
v 462 12
v 463 2
v 464 4
v 465 16
v 466 8
v 467 7
v 468 32
v 469 18
v 470 24
v 471 7
v 472 23
v 473 31
v 474 20
v 475 31
v 476 16
v 477 1
v 478 1
v 479 19
v 480 26
v 481 32
v 482 0
v 483 36
v 484 29
v 485 16
v 486 33
v 487 39
v 488 26
v 489 18
v 490 4
v 491 24
v 492 32
v 493 27
v 494 17
v 495 8
v 496 31
v 497 8
v 498 18
v 499 6
v 500 1
v 501 0
v 502 24
v 503 27
v 504 4
v 505 3
v 506 22
v 507 11
v 508 18
v 509 36
v 510 33
v 511 32
v 512 29
v 513 18
v 514 39
v 515 33
v 516 19
v 517 37
v 518 25
v 519 31
v 520 12
v 521 2
v 522 5
v 523 8
v 524 17
v 525 20
v 526 21
v 527 20
v 528 5
v 529 12
v 530 38
v 531 27
v 532 10
v 533 32
v 534 8
v 535 12
v 536 4
v 537 2
v 538 19
v 539 28
v 540 28
v 541 2
v 542 14
v 543 39
v 544 34
v 545 3
v 546 23
v 547 36
v 548 10
v 549 36
v 550 25
v 551 13
v 552 28
v 553 11
v 554 31
v 555 13
v 556 16
v 557 7
v 558 38
v 559 10
v 560 4
v 561 9
v 562 11
v 563 27
v 564 19
v 565 38
v 566 0
v 567 25
v 568 2
v 569 13
v 570 16
v 571 23
v 572 8
v 573 25
v 574 23
v 575 15
v 576 21
v 577 20
v 578 15
v 579 5
v 580 7
v 581 30
v 582 38
v 583 0
v 584 12
v 585 5
v 586 5
v 587 7
v 588 26
v 589 14
v 590 14
v 591 14
v 592 23
v 593 29
v 594 21
v 595 34
v 596 11
v 597 36
v 598 4
v 599 39
v 600 18
v 601 0
v 602 38
v 603 15
v 604 37
v 605 22
v 606 14
v 607 18
v 608 3
v 609 12
v 610 14
v 611 32
v 612 22
v 613 34
v 614 10
v 615 26
v 616 13
v 617 27
v 618 10
v 619 40
v 620 15
v 621 12
v 622 8
v 623 39
v 624 8
v 625 16
v 626 8
v 627 6
v 628 37
v 629 4
v 630 5
v 631 11
v 632 6
v 633 9
v 634 21
v 635 21
v 636 17
v 637 35
v 638 6
v 639 21
v 640 2
v 641 30
v 642 33
v 643 2
v 644 7
v 645 25
v 646 6
v 647 12
v 648 31
v 649 18
v 650 14
v 651 33
v 652 3
v 653 35
v 654 24
v 655 23
v 656 19
v 657 7
v 658 2
v 659 28
v 660 0
v 661 7
v 662 37
v 663 34
v 664 3
v 665 19
v 666 31
v 667 26
v 668 3
v 669 29
v 670 18
v 671 1
v 672 24
v 673 1
v 674 28
v 675 7
v 676 19
v 677 40
v 678 20
v 679 31
v 680 33
v 681 14
v 682 16
v 683 17
v 684 8
v 685 19
v 686 4
v 687 11
v 688 38
v 689 27
v 690 21
v 691 38
v 692 6
v 693 7
v 694 40
v 695 15
v 696 9
v 697 14
v 698 0
v 699 38
v 700 6
v 701 25
v 702 13
v 703 11
v 704 37
v 705 29
v 706 9
v 707 23
v 708 16
v 709 28
v 710 2
v 711 24
v 712 17
v 713 2
v 714 15
v 715 18
v 716 12
v 717 34
v 718 21
v 719 26
v 720 12
v 721 13
v 722 1
v 723 6
v 724 29
v 725 21
v 726 0
v 727 4
v 728 6
v 729 11
v 730 9
v 731 21
v 732 21
v 733 23
v 734 18
v 735 28
v 736 16
v 737 30
v 738 9
v 739 18
v 740 4
v 741 13
v 742 23
v 743 39
v 744 40
v 745 4
v 746 12
v 747 28
